(set-option :produce-models true)
(set-logic QF_UF)
(declare-fun p26() Bool)
(declare-fun p30() Bool)
(declare-fun p14() Bool)
(declare-fun p1() Bool)
(declare-fun p58() Bool)
(declare-fun p8() Bool)
(declare-fun p0() Bool)
(declare-fun p10() Bool)
(declare-fun p53() Bool)
(declare-fun p20() Bool)
(declare-fun p28() Bool)
(declare-fun p56() Bool)
(declare-fun p48() Bool)
(declare-fun p22() Bool)
(declare-fun p11() Bool)
(declare-fun p33() Bool)
(declare-fun p32() Bool)
(declare-fun p7() Bool)
(declare-fun p39() Bool)
(declare-fun p50() Bool)
(declare-fun p36() Bool)
(declare-fun p25() Bool)
(declare-fun p31() Bool)
(declare-fun p46() Bool)
(declare-fun p45() Bool)
(declare-fun p55() Bool)
(declare-fun p5() Bool)
(declare-fun p21() Bool)
(declare-fun p3() Bool)
(declare-fun p44() Bool)
(declare-fun p42() Bool)
(declare-fun p57() Bool)
(declare-fun p17() Bool)
(declare-fun p59() Bool)
(declare-fun p37() Bool)
(declare-fun p54() Bool)
(declare-fun p12() Bool)
(declare-fun p43() Bool)
(declare-fun p51() Bool)
(declare-fun p19() Bool)
(declare-fun p9() Bool)
(declare-fun p40() Bool)
(declare-fun p18() Bool)
(declare-fun p27() Bool)
(declare-fun p47() Bool)
(declare-fun p35() Bool)
(declare-fun p16() Bool)
(declare-fun p41() Bool)
(declare-fun p52() Bool)
(declare-fun p24() Bool)
(declare-fun p34() Bool)
(declare-fun p13() Bool)
(declare-fun p4() Bool)
(declare-fun p6() Bool)
(declare-fun p15() Bool)
(declare-fun p49() Bool)
(declare-fun p38() Bool)
(declare-fun p2() Bool)
(declare-fun p29() Bool)
(declare-fun p23() Bool)
(assert
(and (or (not p26) p30 p14) (or p1 p58 (not p8)) (or p0 p10 (not p53)) (or p20 (not p28) p56) (or (not p48) (not p20) (not p22)) (or (not p11) p0 (not p30)) (or (not p33) (not p32) p20) (or p7 (not p39) p50) (or p36 (not p25) (not p31)) (or (not p10) p46 p45) (or p32 (not p55) p5) (or (not p11) (not p21) p3) (or (not p44) p33 p58) (or p42 p57 (not p55)) (or p33 (not p17) p59) (or (not p21) p37 p54) (or (not p22) p10 (not p0)) (or p12 (not p43) p42) (or p33 (not p14) (not p1)) (or (not p20) (not p8) (not p11)) (or (not p51) (not p50) p43) (or (not p14) (not p37) p11) (or (not p54) p19 (not p9)) (or (not p32) (not p40) p14) (or (not p20) p9 (not p14)) (or (not p48) p18 p39) (or (not p27) (not p39) (not p47)) (or (not p37) (not p35) (not p16)) (or (not p57) p41 p36) (or (not p58) (not p43) p52) (or p20 p44 (not p20)) (or (not p47) (not p10) (not p32)) (or (not p24) (not p30) (not p58)) (or (not p34) p8 p54) (or (not p13) (not p37) (not p16)) (or p57 (not p28) p51) (or p31 p50 p53) (or (not p14) p53 p8) (or p20 p22 (not p30)) (or (not p10) (not p30) p26) (or p14 p14 p25) (or p9 p43 p18) (or (not p44) (not p44) p59) (or (not p20) p41 p53) (or (not p47) (not p33) p41) (or p39 (not p55) p5) (or (not p53) p27 (not p40)) (or p8 (not p19) (not p40)) (or p4 (not p31) p39) (or p55 p56 (not p26)) (or (not p6) (not p42) (not p18)) (or (not p8) p36 (not p47)) (or (not p41) p41 p59) (or p17 p18 (not p18)) (or (not p15) p30 p33) (or (not p21) p28 (not p59)) (or (not p31) (not p32) p40) (or (not p18) (not p34) (not p26)) (or p1 (not p26) (not p53)) (or (not p1) (not p10) p43) (or (not p36) p47 p22) (or (not p55) p0 p43) (or p15 (not p51) (not p41)) (or (not p28) p32 (not p10)) (or p28 p3 p4) (or (not p46) p0 p32) (or (not p42) (not p44) (not p49)) (or p7 p42 (not p30)) (or p18 p38 p2) (or (not p12) (not p29) (not p51)) (or (not p5) (not p27) (not p24)) (or p4 (not p54) (not p19)) (or (not p33) (not p3) (not p23)) (or p20 p26 p31) (or (not p3) (not p12) (not p15)) (or (not p34) p14 p43) (or p38 p9 (not p45)) (or p42 p11 p47) (or (not p18) p6 (not p1)) (or (not p50) (not p44) (not p33)) (or (not p42) p51 (not p41)) (or (not p0) (not p3) (not p57)) (or (not p2) (not p23) (not p7)) (or p7 (not p51) (not p9)) (or p32 p9 p31) (or p18 (not p15) p23) (or (not p3) (not p0) (not p39)) (or p52 (not p7) (not p50)) (or p29 (not p13) (not p55)) (or p21 (not p7) p23) (or p16 (not p55) p54) (or (not p46) (not p28) p40) (or (not p13) (not p29) p24) (or (not p36) (not p58) (not p26)) (or (not p25) (not p57) (not p16)) (or (not p31) p24 p5) (or p19 p40 (not p18)) (or (not p31) (not p1) (not p26)) (or (not p23) (not p8) p53) (or (not p53) p42 p3) (or (not p12) p16 p5) (or (not p30) (not p28) p33) (or p55 (not p57) (not p54)) (or (not p44) (not p39) p32) (or (not p37) (not p52) (not p48)) (or (not p38) p15 p55) (or p25 (not p40) p48) (or p35 p48 (not p33)) (or p27 (not p35) (not p31)) (or p12 (not p4) p52) (or (not p36) (not p2) (not p29)) (or (not p20) (not p10) (not p58)) (or (not p1) p13 p7) (or (not p19) p32 (not p38)) (or p36 (not p4) (not p5)) (or (not p48) (not p47) p43) (or (not p29) p52 p28) (or (not p16) (not p26) p9) (or (not p31) (not p57) p4) (or p10 p14 p57) (or (not p35) (not p12) (not p41)) (or p57 (not p20) p21) (or (not p48) (not p56) p31) (or p50 (not p13) p35) (or p18 p13 (not p13)) (or (not p22) (not p43) p11) (or (not p58) (not p10) p36) (or (not p22) (not p39) (not p43)) (or p1 p19 (not p57)) (or p51 p16 (not p25)) (or p5 p32 p52) (or (not p32) p48 p1) (or (not p59) (not p36) p7) (or p7 (not p5) p31) (or p0 (not p6) p52) (or (not p15) (not p6) (not p7)) (or (not p11) p44 p45) (or p39 (not p15) (not p22)) (or p11 p3 (not p4)) (or p0 (not p39) (not p44)) (or (not p23) p34 (not p6)) (or (not p9) (not p48) p39) (or p7 p58 p52) (or p33 p45 (not p7)) (or p48 (not p34) (not p23)) (or (not p28) p17 (not p42)) (or p40 (not p34) (not p36)) (or p29 p42 p57) (or (not p24) p0 (not p46)) (or (not p51) (not p37) p58) (or p59 (not p35) (not p7)) (or (not p54) p24 (not p22)) (or p8 p13 (not p21)) (or p22 p49 (not p57)) (or (not p2) (not p4) (not p40)) (or (not p51) (not p21) p9) (or p8 (not p33) p41) (or (not p28) (not p35) (not p33)) (or (not p41) p33 p49) (or p59 (not p13) p54) (or (not p52) p21 p49) (or p24 p31 p33) (or p47 (not p32) p33) (or (not p25) (not p24) (not p13)) (or p29 p35 (not p59)) (or p24 (not p29) p30) (or (not p5) p8 p34) (or p35 p55 (not p22)) (or p34 (not p32) p38) (or (not p52) (not p37) (not p53)) (or (not p7) (not p5) (not p21)) (or p12 (not p50) p11) (or (not p15) p45 (not p51)) (or (not p36) (not p9) (not p54)) (or p38 p12 p58) (or p45 p37 p0) (or p11 p2 p2) (or (not p55) p40 (not p29)) (or p2 p20 (not p19)) (or p56 (not p42) p1) (or (not p32) (not p12) p47) (or (not p49) (not p21) (not p49)) (or p34 p9 (not p28)) (or p4 p34 p42) (or (not p56) p59 p15) (or p20 (not p19) p47) (or (not p25) (not p0) (not p16)) (or p34 p8 (not p44)) (or p32 p4 (not p57)) (or (not p23) (not p52) (not p28)) (or p59 (not p44) (not p52)) (or p33 (not p13) p23) (or p18 (not p49) p26) (or p9 (not p57) (not p49)) (or (not p49) p29 (not p17)) (or (not p33) (not p18) (not p25)) (or (not p15) (not p3) (not p53)) (or p40 (not p24) p36) (or (not p41) p24 p45) (or (not p31) p13 p14) (or (not p23) (not p59) (not p28)) (or (not p55) p53 (not p20)) (or (not p47) p31 p15) (or (not p25) p35 p31) (or (not p1) (not p11) (not p9)) (or p34 (not p32) p28) (or p6 (not p27) (not p31)) (or p56 p8 (not p24)) (or p27 (not p8) (not p4)) (or p40 p12 (not p6)) (or (not p31) p23 (not p23)) (or p49 p49 p13) (or p3 (not p5) (not p22)) (or p27 p22 (not p54)) (or (not p52) p39 (not p31)) (or p53 p47 (not p9)) (or p12 (not p47) (not p30)) (or (not p7) (not p12) p9) (or (not p48) p42 (not p40)) (or (not p15) (not p50) p38) (or p36 p30 (not p4)) (or (not p11) p8 p11) (or (not p55) (not p18) (not p19)) (or (not p41) p51 (not p6)) (or (not p15) (not p29) (not p4)) (or (not p26) (not p34) (not p14)) (or p35 p6 p24) (or p15 p31 (not p3)) (or (not p34) p2 p14) (or p20 p41 (not p15)) (or (not p10) (not p38) p23) (or (not p15) (not p36) p30) (or p13 p59 (not p17)) (or (not p25) p20 (not p26)) (or p6 (not p8) p35) (or p33 (not p25) p43) (or p58 p29 p32) (or p30 p9 (not p13)) (or (not p6) (not p18) (not p8)) (or (not p27) (not p45) (not p4)) (or (not p31) p37 (not p1)) (or (not p36) p26 (not p9)) (or (not p25) (not p29) (not p47)) (or (not p22) (not p57) p12) (or (not p44) p21 p24) (or (not p23) p3 (not p45)) (or p3 p4 p12) (or p32 (not p8) (not p2)) (or (not p51) (not p16) (not p24)) (or (not p27) p2 p22) (or p49 (not p22) p39) (or p58 p47 p59))
)
(check-sat)
(get-model)
